2
8
20
1 1.3 1.55 1.75 2.1
21 40 18 36 34 35 35 38 10 30 17 10 26 26 18 46 49 36 11 18 18 14 7 21 45 14 17 47 44 30 19 9 23 49 25 28 41 6 29 9 45 38 20 42 36 34 23 26 15 24 12 15 27 37 12 8 29 26 25 13 43 31 34 31 20 43 43 9 39 28 45 40 18 32 23 44 42 31 35 38 20 31 22 16 16 19 31 40 14 40 9 45 38 44 17 39 47 16 5 45 9 18 5 16 9 31 19 44 40 49 19 17 41 6 48 8 36 5 7 21 23 40 10 10 12 20 19 35 47 43 37 32 16 21 36 16 23 8 7 48 39 38 34 17 6 12 37 21 24 29 31 20 12 17 27 33 6 7 32 9 